
(set-option :produce-models true)
(set-option :inline-size-limit 10000)

(declare-const var0 String)

(push 1)
(assert (str.in.re var0 (re.* (re.range "\x01" "\xff"))))
(assert (str.in.re var0 (re.++ (re.*? re.allchar) (re.++ (re.union ((_ re.capture 1) (re.++ ((_ re.capture 2) (re.union (re.++ (str.to.re "&") (re.++ (str.to.re "q") (re.++ (str.to.re "u") (re.++ (str.to.re "o") (re.++ (str.to.re "t") (str.to.re ";")))))) (re.++ (str.to.re "&") (re.++ (str.to.re "#") (re.++ (str.to.re "3") (re.++ (str.to.re "9") (str.to.re ";"))))))) (re.++ (re.* (re.union (re.range "a" "z") (re.union (re.range "0" "9") (re.union (str.to.re "/") (re.union (str.to.re ".") (re.union (str.to.re "?") (re.union (str.to.re "=") (re.union (str.to.re "&") (re.union (str.to.re "a") (re.union (str.to.re "m") (re.union (str.to.re "p") (str.to.re ";")))))))))))) (re.++ ((_ re.capture 3) (re.union (re.union (re.union (re.++ (str.to.re ".") (re.++ (str.to.re "h") (re.++ (str.to.re "t") (str.to.re "m")))) (re.++ (str.to.re ".") (re.++ (str.to.re "a") (re.++ (str.to.re "s") (str.to.re "p"))))) (re.++ (str.to.re ".") (re.++ (str.to.re "p") (re.++ (str.to.re "h") (str.to.re "p"))))) (re.++ (str.to.re ".") (re.++ (str.to.re "j") (re.++ (str.to.re "s") (str.to.re "p")))))) (re.++ (re.* (re.union (re.range "a" "z") (re.union (re.range "0" "9") (re.union (str.to.re "/") (re.union (str.to.re ".") (re.union (str.to.re "?") (re.union (str.to.re "=") (re.union (str.to.re "&") (re.union (str.to.re "a") (re.union (str.to.re "m") (re.union (str.to.re "p") (str.to.re ";")))))))))))) ((_ re.capture 4) (re.union (re.++ (str.to.re "&") (re.++ (str.to.re "q") (re.++ (str.to.re "u") (re.++ (str.to.re "o") (re.++ (str.to.re "t") (str.to.re ";")))))) (re.++ (str.to.re "&") (re.++ (str.to.re "#") (re.++ (str.to.re "3") (re.++ (str.to.re "9") (str.to.re ";")))))))))))) ((_ re.capture 5) (re.++ (str.to.re "h") (re.++ (str.to.re "r") (re.++ (str.to.re "e") (re.++ (str.to.re "f") (re.++ (re.*? (str.to.re "=")) (re.* (re.union (re.range "a" "z") (re.union (re.range "0" "9") (re.union (str.to.re "/") (re.union (str.to.re ".") (re.union (str.to.re "?") (re.union (str.to.re "=") (re.union (str.to.re "&") (re.union (str.to.re "a") (re.union (str.to.re "m") (re.union (str.to.re "p") (re.union (str.to.re ";") (re.union (str.to.re "&") (re.union (str.to.re "q") (re.union (str.to.re "u") (re.union (str.to.re "o") (re.union (str.to.re "t") (re.union (str.to.re ";") (re.union (str.to.re "&") (re.union (str.to.re "#") (re.union (str.to.re "3") (re.union (str.to.re "9") (str.to.re ";")))))))))))))))))))))))))))))) re.all))))	; match!==null
(assert (not (str.in.re ((_ str.extract 1) var0 (re.++ (re.*? re.allchar) (re.++ (re.union ((_ re.capture 1) (re.++ ((_ re.capture 2) (re.union (re.++ (str.to.re "&") (re.++ (str.to.re "q") (re.++ (str.to.re "u") (re.++ (str.to.re "o") (re.++ (str.to.re "t") (str.to.re ";")))))) (re.++ (str.to.re "&") (re.++ (str.to.re "#") (re.++ (str.to.re "3") (re.++ (str.to.re "9") (str.to.re ";"))))))) (re.++ (re.* (re.union (re.range "a" "z") (re.union (re.range "0" "9") (re.union (str.to.re "/") (re.union (str.to.re ".") (re.union (str.to.re "?") (re.union (str.to.re "=") (re.union (str.to.re "&") (re.union (str.to.re "a") (re.union (str.to.re "m") (re.union (str.to.re "p") (str.to.re ";")))))))))))) (re.++ ((_ re.capture 3) (re.union (re.union (re.union (re.++ (str.to.re ".") (re.++ (str.to.re "h") (re.++ (str.to.re "t") (str.to.re "m")))) (re.++ (str.to.re ".") (re.++ (str.to.re "a") (re.++ (str.to.re "s") (str.to.re "p"))))) (re.++ (str.to.re ".") (re.++ (str.to.re "p") (re.++ (str.to.re "h") (str.to.re "p"))))) (re.++ (str.to.re ".") (re.++ (str.to.re "j") (re.++ (str.to.re "s") (str.to.re "p")))))) (re.++ (re.* (re.union (re.range "a" "z") (re.union (re.range "0" "9") (re.union (str.to.re "/") (re.union (str.to.re ".") (re.union (str.to.re "?") (re.union (str.to.re "=") (re.union (str.to.re "&") (re.union (str.to.re "a") (re.union (str.to.re "m") (re.union (str.to.re "p") (str.to.re ";")))))))))))) ((_ re.capture 4) (re.union (re.++ (str.to.re "&") (re.++ (str.to.re "q") (re.++ (str.to.re "u") (re.++ (str.to.re "o") (re.++ (str.to.re "t") (str.to.re ";")))))) (re.++ (str.to.re "&") (re.++ (str.to.re "#") (re.++ (str.to.re "3") (re.++ (str.to.re "9") (str.to.re ";")))))))))))) ((_ re.capture 5) (re.++ (str.to.re "h") (re.++ (str.to.re "r") (re.++ (str.to.re "e") (re.++ (str.to.re "f") (re.++ (re.*? (str.to.re "=")) (re.* (re.union (re.range "a" "z") (re.union (re.range "0" "9") (re.union (str.to.re "/") (re.union (str.to.re ".") (re.union (str.to.re "?") (re.union (str.to.re "=") (re.union (str.to.re "&") (re.union (str.to.re "a") (re.union (str.to.re "m") (re.union (str.to.re "p") (re.union (str.to.re ";") (re.union (str.to.re "&") (re.union (str.to.re "q") (re.union (str.to.re "u") (re.union (str.to.re "o") (re.union (str.to.re "t") (re.union (str.to.re ";") (re.union (str.to.re "&") (re.union (str.to.re "#") (re.union (str.to.re "3") (re.union (str.to.re "9") (str.to.re ";")))))))))))))))))))))))))))))) re.all))) (str.to.re "\x00"))))
;match[1]!==null
(assert (str.in.re ((_ str.extract 1) var0 (re.++ (re.*? re.allchar) (re.++ (re.union ((_ re.capture 1) (re.++ ((_ re.capture 2) (re.union (re.++ (str.to.re "&") (re.++ (str.to.re "q") (re.++ (str.to.re "u") (re.++ (str.to.re "o") (re.++ (str.to.re "t") (str.to.re ";")))))) (re.++ (str.to.re "&") (re.++ (str.to.re "#") (re.++ (str.to.re "3") (re.++ (str.to.re "9") (str.to.re ";"))))))) (re.++ (re.* (re.union (re.range "a" "z") (re.union (re.range "0" "9") (re.union (str.to.re "/") (re.union (str.to.re ".") (re.union (str.to.re "?") (re.union (str.to.re "=") (re.union (str.to.re "&") (re.union (str.to.re "a") (re.union (str.to.re "m") (re.union (str.to.re "p") (str.to.re ";")))))))))))) (re.++ ((_ re.capture 3) (re.union (re.union (re.union (re.++ (str.to.re ".") (re.++ (str.to.re "h") (re.++ (str.to.re "t") (str.to.re "m")))) (re.++ (str.to.re ".") (re.++ (str.to.re "a") (re.++ (str.to.re "s") (str.to.re "p"))))) (re.++ (str.to.re ".") (re.++ (str.to.re "p") (re.++ (str.to.re "h") (str.to.re "p"))))) (re.++ (str.to.re ".") (re.++ (str.to.re "j") (re.++ (str.to.re "s") (str.to.re "p")))))) (re.++ (re.* (re.union (re.range "a" "z") (re.union (re.range "0" "9") (re.union (str.to.re "/") (re.union (str.to.re ".") (re.union (str.to.re "?") (re.union (str.to.re "=") (re.union (str.to.re "&") (re.union (str.to.re "a") (re.union (str.to.re "m") (re.union (str.to.re "p") (str.to.re ";")))))))))))) ((_ re.capture 4) (re.union (re.++ (str.to.re "&") (re.++ (str.to.re "q") (re.++ (str.to.re "u") (re.++ (str.to.re "o") (re.++ (str.to.re "t") (str.to.re ";")))))) (re.++ (str.to.re "&") (re.++ (str.to.re "#") (re.++ (str.to.re "3") (re.++ (str.to.re "9") (str.to.re ";")))))))))))) ((_ re.capture 5) (re.++ (str.to.re "h") (re.++ (str.to.re "r") (re.++ (str.to.re "e") (re.++ (str.to.re "f") (re.++ (re.*? (str.to.re "=")) (re.* (re.union (re.range "a" "z") (re.union (re.range "0" "9") (re.union (str.to.re "/") (re.union (str.to.re ".") (re.union (str.to.re "?") (re.union (str.to.re "=") (re.union (str.to.re "&") (re.union (str.to.re "a") (re.union (str.to.re "m") (re.union (str.to.re "p") (re.union (str.to.re ";") (re.union (str.to.re "&") (re.union (str.to.re "q") (re.union (str.to.re "u") (re.union (str.to.re "o") (re.union (str.to.re "t") (re.union (str.to.re ";") (re.union (str.to.re "&") (re.union (str.to.re "#") (re.union (str.to.re "3") (re.union (str.to.re "9") (str.to.re ";")))))))))))))))))))))))))))))) re.all))) (re.++ re.all(re.+ (re.range "a" "z")) re.all) ))
;/[a-z]+/.test(match[1]) == true
(check-sat)
(get-model)
(pop 1)
(push 1)
(assert (str.in.re var0 (re.* (re.range "\x01" "\xff"))))
(assert (str.in.re var0 (re.++ (re.*? re.allchar) (re.++ (re.union ((_ re.capture 1) (re.++ ((_ re.capture 2) (re.union (re.++ (str.to.re "&") (re.++ (str.to.re "q") (re.++ (str.to.re "u") (re.++ (str.to.re "o") (re.++ (str.to.re "t") (str.to.re ";")))))) (re.++ (str.to.re "&") (re.++ (str.to.re "#") (re.++ (str.to.re "3") (re.++ (str.to.re "9") (str.to.re ";"))))))) (re.++ (re.* (re.union (re.range "a" "z") (re.union (re.range "0" "9") (re.union (str.to.re "/") (re.union (str.to.re ".") (re.union (str.to.re "?") (re.union (str.to.re "=") (re.union (str.to.re "&") (re.union (str.to.re "a") (re.union (str.to.re "m") (re.union (str.to.re "p") (str.to.re ";")))))))))))) (re.++ ((_ re.capture 3) (re.union (re.union (re.union (re.++ (str.to.re ".") (re.++ (str.to.re "h") (re.++ (str.to.re "t") (str.to.re "m")))) (re.++ (str.to.re ".") (re.++ (str.to.re "a") (re.++ (str.to.re "s") (str.to.re "p"))))) (re.++ (str.to.re ".") (re.++ (str.to.re "p") (re.++ (str.to.re "h") (str.to.re "p"))))) (re.++ (str.to.re ".") (re.++ (str.to.re "j") (re.++ (str.to.re "s") (str.to.re "p")))))) (re.++ (re.* (re.union (re.range "a" "z") (re.union (re.range "0" "9") (re.union (str.to.re "/") (re.union (str.to.re ".") (re.union (str.to.re "?") (re.union (str.to.re "=") (re.union (str.to.re "&") (re.union (str.to.re "a") (re.union (str.to.re "m") (re.union (str.to.re "p") (str.to.re ";")))))))))))) ((_ re.capture 4) (re.union (re.++ (str.to.re "&") (re.++ (str.to.re "q") (re.++ (str.to.re "u") (re.++ (str.to.re "o") (re.++ (str.to.re "t") (str.to.re ";")))))) (re.++ (str.to.re "&") (re.++ (str.to.re "#") (re.++ (str.to.re "3") (re.++ (str.to.re "9") (str.to.re ";")))))))))))) ((_ re.capture 5) (re.++ (str.to.re "h") (re.++ (str.to.re "r") (re.++ (str.to.re "e") (re.++ (str.to.re "f") (re.++ (re.*? (str.to.re "=")) (re.* (re.union (re.range "a" "z") (re.union (re.range "0" "9") (re.union (str.to.re "/") (re.union (str.to.re ".") (re.union (str.to.re "?") (re.union (str.to.re "=") (re.union (str.to.re "&") (re.union (str.to.re "a") (re.union (str.to.re "m") (re.union (str.to.re "p") (re.union (str.to.re ";") (re.union (str.to.re "&") (re.union (str.to.re "q") (re.union (str.to.re "u") (re.union (str.to.re "o") (re.union (str.to.re "t") (re.union (str.to.re ";") (re.union (str.to.re "&") (re.union (str.to.re "#") (re.union (str.to.re "3") (re.union (str.to.re "9") (str.to.re ";")))))))))))))))))))))))))))))) re.all))))	; match!==null
(assert (not (str.in.re ((_ str.extract 1) var0 (re.++ (re.*? re.allchar) (re.++ (re.union ((_ re.capture 1) (re.++ ((_ re.capture 2) (re.union (re.++ (str.to.re "&") (re.++ (str.to.re "q") (re.++ (str.to.re "u") (re.++ (str.to.re "o") (re.++ (str.to.re "t") (str.to.re ";")))))) (re.++ (str.to.re "&") (re.++ (str.to.re "#") (re.++ (str.to.re "3") (re.++ (str.to.re "9") (str.to.re ";"))))))) (re.++ (re.* (re.union (re.range "a" "z") (re.union (re.range "0" "9") (re.union (str.to.re "/") (re.union (str.to.re ".") (re.union (str.to.re "?") (re.union (str.to.re "=") (re.union (str.to.re "&") (re.union (str.to.re "a") (re.union (str.to.re "m") (re.union (str.to.re "p") (str.to.re ";")))))))))))) (re.++ ((_ re.capture 3) (re.union (re.union (re.union (re.++ (str.to.re ".") (re.++ (str.to.re "h") (re.++ (str.to.re "t") (str.to.re "m")))) (re.++ (str.to.re ".") (re.++ (str.to.re "a") (re.++ (str.to.re "s") (str.to.re "p"))))) (re.++ (str.to.re ".") (re.++ (str.to.re "p") (re.++ (str.to.re "h") (str.to.re "p"))))) (re.++ (str.to.re ".") (re.++ (str.to.re "j") (re.++ (str.to.re "s") (str.to.re "p")))))) (re.++ (re.* (re.union (re.range "a" "z") (re.union (re.range "0" "9") (re.union (str.to.re "/") (re.union (str.to.re ".") (re.union (str.to.re "?") (re.union (str.to.re "=") (re.union (str.to.re "&") (re.union (str.to.re "a") (re.union (str.to.re "m") (re.union (str.to.re "p") (str.to.re ";")))))))))))) ((_ re.capture 4) (re.union (re.++ (str.to.re "&") (re.++ (str.to.re "q") (re.++ (str.to.re "u") (re.++ (str.to.re "o") (re.++ (str.to.re "t") (str.to.re ";")))))) (re.++ (str.to.re "&") (re.++ (str.to.re "#") (re.++ (str.to.re "3") (re.++ (str.to.re "9") (str.to.re ";")))))))))))) ((_ re.capture 5) (re.++ (str.to.re "h") (re.++ (str.to.re "r") (re.++ (str.to.re "e") (re.++ (str.to.re "f") (re.++ (re.*? (str.to.re "=")) (re.* (re.union (re.range "a" "z") (re.union (re.range "0" "9") (re.union (str.to.re "/") (re.union (str.to.re ".") (re.union (str.to.re "?") (re.union (str.to.re "=") (re.union (str.to.re "&") (re.union (str.to.re "a") (re.union (str.to.re "m") (re.union (str.to.re "p") (re.union (str.to.re ";") (re.union (str.to.re "&") (re.union (str.to.re "q") (re.union (str.to.re "u") (re.union (str.to.re "o") (re.union (str.to.re "t") (re.union (str.to.re ";") (re.union (str.to.re "&") (re.union (str.to.re "#") (re.union (str.to.re "3") (re.union (str.to.re "9") (str.to.re ";")))))))))))))))))))))))))))))) re.all))) (str.to.re "\x00"))))	
;match[1]!==null
(assert (not (str.in.re ((_ str.extract 1) var0 (re.++ (re.*? re.allchar) (re.++ (re.union ((_ re.capture 1) (re.++ ((_ re.capture 2) (re.union (re.++ (str.to.re "&") (re.++ (str.to.re "q") (re.++ (str.to.re "u") (re.++ (str.to.re "o") (re.++ (str.to.re "t") (str.to.re ";")))))) (re.++ (str.to.re "&") (re.++ (str.to.re "#") (re.++ (str.to.re "3") (re.++ (str.to.re "9") (str.to.re ";"))))))) (re.++ (re.* (re.union (re.range "a" "z") (re.union (re.range "0" "9") (re.union (str.to.re "/") (re.union (str.to.re ".") (re.union (str.to.re "?") (re.union (str.to.re "=") (re.union (str.to.re "&") (re.union (str.to.re "a") (re.union (str.to.re "m") (re.union (str.to.re "p") (str.to.re ";")))))))))))) (re.++ ((_ re.capture 3) (re.union (re.union (re.union (re.++ (str.to.re ".") (re.++ (str.to.re "h") (re.++ (str.to.re "t") (str.to.re "m")))) (re.++ (str.to.re ".") (re.++ (str.to.re "a") (re.++ (str.to.re "s") (str.to.re "p"))))) (re.++ (str.to.re ".") (re.++ (str.to.re "p") (re.++ (str.to.re "h") (str.to.re "p"))))) (re.++ (str.to.re ".") (re.++ (str.to.re "j") (re.++ (str.to.re "s") (str.to.re "p")))))) (re.++ (re.* (re.union (re.range "a" "z") (re.union (re.range "0" "9") (re.union (str.to.re "/") (re.union (str.to.re ".") (re.union (str.to.re "?") (re.union (str.to.re "=") (re.union (str.to.re "&") (re.union (str.to.re "a") (re.union (str.to.re "m") (re.union (str.to.re "p") (str.to.re ";")))))))))))) ((_ re.capture 4) (re.union (re.++ (str.to.re "&") (re.++ (str.to.re "q") (re.++ (str.to.re "u") (re.++ (str.to.re "o") (re.++ (str.to.re "t") (str.to.re ";")))))) (re.++ (str.to.re "&") (re.++ (str.to.re "#") (re.++ (str.to.re "3") (re.++ (str.to.re "9") (str.to.re ";")))))))))))) ((_ re.capture 5) (re.++ (str.to.re "h") (re.++ (str.to.re "r") (re.++ (str.to.re "e") (re.++ (str.to.re "f") (re.++ (re.*? (str.to.re "=")) (re.* (re.union (re.range "a" "z") (re.union (re.range "0" "9") (re.union (str.to.re "/") (re.union (str.to.re ".") (re.union (str.to.re "?") (re.union (str.to.re "=") (re.union (str.to.re "&") (re.union (str.to.re "a") (re.union (str.to.re "m") (re.union (str.to.re "p") (re.union (str.to.re ";") (re.union (str.to.re "&") (re.union (str.to.re "q") (re.union (str.to.re "u") (re.union (str.to.re "o") (re.union (str.to.re "t") (re.union (str.to.re ";") (re.union (str.to.re "&") (re.union (str.to.re "#") (re.union (str.to.re "3") (re.union (str.to.re "9") (str.to.re ";")))))))))))))))))))))))))))))) re.all))) (re.++ re.all(re.+ (re.range "a" "z")) re.all) )))
;/[a-z]+/.test(match[1]) == false	
(check-sat)
(get-model)
(pop 1)
(push 1)
(assert (str.in.re var0 (re.* (re.range "\x01" "\xff"))))
(assert (str.in.re var0 (re.++ (re.*? re.allchar) (re.++ (re.union ((_ re.capture 1) (re.++ ((_ re.capture 2) (re.union (re.++ (str.to.re "&") (re.++ (str.to.re "q") (re.++ (str.to.re "u") (re.++ (str.to.re "o") (re.++ (str.to.re "t") (str.to.re ";")))))) (re.++ (str.to.re "&") (re.++ (str.to.re "#") (re.++ (str.to.re "3") (re.++ (str.to.re "9") (str.to.re ";"))))))) (re.++ (re.* (re.union (re.range "a" "z") (re.union (re.range "0" "9") (re.union (str.to.re "/") (re.union (str.to.re ".") (re.union (str.to.re "?") (re.union (str.to.re "=") (re.union (str.to.re "&") (re.union (str.to.re "a") (re.union (str.to.re "m") (re.union (str.to.re "p") (str.to.re ";")))))))))))) (re.++ ((_ re.capture 3) (re.union (re.union (re.union (re.++ (str.to.re ".") (re.++ (str.to.re "h") (re.++ (str.to.re "t") (str.to.re "m")))) (re.++ (str.to.re ".") (re.++ (str.to.re "a") (re.++ (str.to.re "s") (str.to.re "p"))))) (re.++ (str.to.re ".") (re.++ (str.to.re "p") (re.++ (str.to.re "h") (str.to.re "p"))))) (re.++ (str.to.re ".") (re.++ (str.to.re "j") (re.++ (str.to.re "s") (str.to.re "p")))))) (re.++ (re.* (re.union (re.range "a" "z") (re.union (re.range "0" "9") (re.union (str.to.re "/") (re.union (str.to.re ".") (re.union (str.to.re "?") (re.union (str.to.re "=") (re.union (str.to.re "&") (re.union (str.to.re "a") (re.union (str.to.re "m") (re.union (str.to.re "p") (str.to.re ";")))))))))))) ((_ re.capture 4) (re.union (re.++ (str.to.re "&") (re.++ (str.to.re "q") (re.++ (str.to.re "u") (re.++ (str.to.re "o") (re.++ (str.to.re "t") (str.to.re ";")))))) (re.++ (str.to.re "&") (re.++ (str.to.re "#") (re.++ (str.to.re "3") (re.++ (str.to.re "9") (str.to.re ";")))))))))))) ((_ re.capture 5) (re.++ (str.to.re "h") (re.++ (str.to.re "r") (re.++ (str.to.re "e") (re.++ (str.to.re "f") (re.++ (re.*? (str.to.re "=")) (re.* (re.union (re.range "a" "z") (re.union (re.range "0" "9") (re.union (str.to.re "/") (re.union (str.to.re ".") (re.union (str.to.re "?") (re.union (str.to.re "=") (re.union (str.to.re "&") (re.union (str.to.re "a") (re.union (str.to.re "m") (re.union (str.to.re "p") (re.union (str.to.re ";") (re.union (str.to.re "&") (re.union (str.to.re "q") (re.union (str.to.re "u") (re.union (str.to.re "o") (re.union (str.to.re "t") (re.union (str.to.re ";") (re.union (str.to.re "&") (re.union (str.to.re "#") (re.union (str.to.re "3") (re.union (str.to.re "9") (str.to.re ";")))))))))))))))))))))))))))))) re.all))))	; match!==null
(assert (str.in.re ((_ str.extract 1) var0 (re.++ (re.*? re.allchar) (re.++ (re.union ((_ re.capture 1) (re.++ ((_ re.capture 2) (re.union (re.++ (str.to.re "&") (re.++ (str.to.re "q") (re.++ (str.to.re "u") (re.++ (str.to.re "o") (re.++ (str.to.re "t") (str.to.re ";")))))) (re.++ (str.to.re "&") (re.++ (str.to.re "#") (re.++ (str.to.re "3") (re.++ (str.to.re "9") (str.to.re ";"))))))) (re.++ (re.* (re.union (re.range "a" "z") (re.union (re.range "0" "9") (re.union (str.to.re "/") (re.union (str.to.re ".") (re.union (str.to.re "?") (re.union (str.to.re "=") (re.union (str.to.re "&") (re.union (str.to.re "a") (re.union (str.to.re "m") (re.union (str.to.re "p") (str.to.re ";")))))))))))) (re.++ ((_ re.capture 3) (re.union (re.union (re.union (re.++ (str.to.re ".") (re.++ (str.to.re "h") (re.++ (str.to.re "t") (str.to.re "m")))) (re.++ (str.to.re ".") (re.++ (str.to.re "a") (re.++ (str.to.re "s") (str.to.re "p"))))) (re.++ (str.to.re ".") (re.++ (str.to.re "p") (re.++ (str.to.re "h") (str.to.re "p"))))) (re.++ (str.to.re ".") (re.++ (str.to.re "j") (re.++ (str.to.re "s") (str.to.re "p")))))) (re.++ (re.* (re.union (re.range "a" "z") (re.union (re.range "0" "9") (re.union (str.to.re "/") (re.union (str.to.re ".") (re.union (str.to.re "?") (re.union (str.to.re "=") (re.union (str.to.re "&") (re.union (str.to.re "a") (re.union (str.to.re "m") (re.union (str.to.re "p") (str.to.re ";")))))))))))) ((_ re.capture 4) (re.union (re.++ (str.to.re "&") (re.++ (str.to.re "q") (re.++ (str.to.re "u") (re.++ (str.to.re "o") (re.++ (str.to.re "t") (str.to.re ";")))))) (re.++ (str.to.re "&") (re.++ (str.to.re "#") (re.++ (str.to.re "3") (re.++ (str.to.re "9") (str.to.re ";")))))))))))) ((_ re.capture 5) (re.++ (str.to.re "h") (re.++ (str.to.re "r") (re.++ (str.to.re "e") (re.++ (str.to.re "f") (re.++ (re.*? (str.to.re "=")) (re.* (re.union (re.range "a" "z") (re.union (re.range "0" "9") (re.union (str.to.re "/") (re.union (str.to.re ".") (re.union (str.to.re "?") (re.union (str.to.re "=") (re.union (str.to.re "&") (re.union (str.to.re "a") (re.union (str.to.re "m") (re.union (str.to.re "p") (re.union (str.to.re ";") (re.union (str.to.re "&") (re.union (str.to.re "q") (re.union (str.to.re "u") (re.union (str.to.re "o") (re.union (str.to.re "t") (re.union (str.to.re ";") (re.union (str.to.re "&") (re.union (str.to.re "#") (re.union (str.to.re "3") (re.union (str.to.re "9") (str.to.re ";")))))))))))))))))))))))))))))) re.all))) (str.to.re "\x00")))
;match[1]==null
(check-sat)
(get-model)
(pop 1)
(push 1)
(assert (str.in.re var0 (re.* (re.range "\x01" "\xff"))))
(assert (not (str.in.re var0 (re.++ (re.*? re.allchar) (re.++ (re.union ((_ re.capture 1) (re.++ ((_ re.capture 2) (re.union (re.++ (str.to.re "&") (re.++ (str.to.re "q") (re.++ (str.to.re "u") (re.++ (str.to.re "o") (re.++ (str.to.re "t") (str.to.re ";")))))) (re.++ (str.to.re "&") (re.++ (str.to.re "#") (re.++ (str.to.re "3") (re.++ (str.to.re "9") (str.to.re ";"))))))) (re.++ (re.* (re.union (re.range "a" "z") (re.union (re.range "0" "9") (re.union (str.to.re "/") (re.union (str.to.re ".") (re.union (str.to.re "?") (re.union (str.to.re "=") (re.union (str.to.re "&") (re.union (str.to.re "a") (re.union (str.to.re "m") (re.union (str.to.re "p") (str.to.re ";")))))))))))) (re.++ ((_ re.capture 3) (re.union (re.union (re.union (re.++ (str.to.re ".") (re.++ (str.to.re "h") (re.++ (str.to.re "t") (str.to.re "m")))) (re.++ (str.to.re ".") (re.++ (str.to.re "a") (re.++ (str.to.re "s") (str.to.re "p"))))) (re.++ (str.to.re ".") (re.++ (str.to.re "p") (re.++ (str.to.re "h") (str.to.re "p"))))) (re.++ (str.to.re ".") (re.++ (str.to.re "j") (re.++ (str.to.re "s") (str.to.re "p")))))) (re.++ (re.* (re.union (re.range "a" "z") (re.union (re.range "0" "9") (re.union (str.to.re "/") (re.union (str.to.re ".") (re.union (str.to.re "?") (re.union (str.to.re "=") (re.union (str.to.re "&") (re.union (str.to.re "a") (re.union (str.to.re "m") (re.union (str.to.re "p") (str.to.re ";")))))))))))) ((_ re.capture 4) (re.union (re.++ (str.to.re "&") (re.++ (str.to.re "q") (re.++ (str.to.re "u") (re.++ (str.to.re "o") (re.++ (str.to.re "t") (str.to.re ";")))))) (re.++ (str.to.re "&") (re.++ (str.to.re "#") (re.++ (str.to.re "3") (re.++ (str.to.re "9") (str.to.re ";")))))))))))) ((_ re.capture 5) (re.++ (str.to.re "h") (re.++ (str.to.re "r") (re.++ (str.to.re "e") (re.++ (str.to.re "f") (re.++ (re.*? (str.to.re "=")) (re.* (re.union (re.range "a" "z") (re.union (re.range "0" "9") (re.union (str.to.re "/") (re.union (str.to.re ".") (re.union (str.to.re "?") (re.union (str.to.re "=") (re.union (str.to.re "&") (re.union (str.to.re "a") (re.union (str.to.re "m") (re.union (str.to.re "p") (re.union (str.to.re ";") (re.union (str.to.re "&") (re.union (str.to.re "q") (re.union (str.to.re "u") (re.union (str.to.re "o") (re.union (str.to.re "t") (re.union (str.to.re ";") (re.union (str.to.re "&") (re.union (str.to.re "#") (re.union (str.to.re "3") (re.union (str.to.re "9") (str.to.re ";")))))))))))))))))))))))))))))) re.all)))))	; match == null
(check-sat)
(get-model)
(pop 1)
(exit)
